

                     SUMMARY OF PM7 CALCULATION, Site No: 29054

                                                       MOPAC2016 (Version: 18.038W)
                                                       Wed Feb 07 14:28:39 2018
                                                       No. of days remaining = 365

           Empirical Formula: C16 H32  =    48 atoms

 MERS=(8) autosym
 Polyethylene



     GEOMETRY OPTIMISED USING EIGENVECTOR FOLLOWING (EF).     
     SCF FIELD WAS ACHIEVED                                   

          HEAT OF FORMATION       =        -80.83596 KCAL/MOL =    -338.21767 KJ/MOL
          TOTAL ENERGY            =      -2399.44806 EV
          ELECTRONIC ENERGY       =     -31851.36815 EV
          CORE-CORE REPULSION     =      29451.92010 EV
          GRADIENT NORM           =          0.82605
          NO. OF FILLED LEVELS    =         48
          IONIZATION POTENTIAL    =         10.593862 EV
          HOMO LUMO ENERGIES (EV) =        -10.594  3.748
          MOLECULAR WEIGHT        =        224.4288
          SCF CALCULATIONS        =         40
          WALL-CLOCK TIME         =          1.449 SECONDS
          COMPUTATION TIME        =          5.710 SECONDS


          FINAL GEOMETRY OBTAINED
 MERS=(8) autosym
 Polyethylene

  C     0.00000000 +0    0.0000000 +0    0.0000000 +0     0     0     0
 XX    20.20778781 +1    0.0000000 +0    0.0000000 +0     1     0     0
  C     1.53446497 +1  145.3910085 +1    0.0000000 +0     1     2     0
  H     1.10586493 +1  109.9974308 +1   58.1048780 +1     3     1     2
  H     1.10586493 +0  109.9974308 +0  -58.1048780 +0     3     1     2
  H     1.10586493 +0   89.9991669 +1 -127.0399895 +1     1     2     3
  H     1.10586493 +0   89.9991669 +0  127.0399895 +0     1     2     3
  C     2.52596293 +1    0.0016149 +1  -23.0715877 +1     1     2     7
  C     1.53446497 +0   34.6039120 +1 -127.0399895 +0     8     1     6
  H     1.10586493 +0  109.9974308 +0 -121.8478487 +1     9     8     1
  H     1.10586493 +0  109.9974308 +0  121.8478487 +0     9     8     1
  H     1.10586493 +0   89.9973130 +1    0.0034932 +1     8     1     6
  H     1.10586493 +0   89.9973130 +0  105.9332416 +1     8     1     6
  C     2.52596293 +0  179.9979105 +1 -179.9965068 +0     8     1     6
  C     1.53446497 +0  145.3910085 +0 -127.0399895 +0     8     1     6
  H     1.10586493 +0  110.0013476 +1  -58.1714176 +1    15     8     1
  H     1.10586493 +0  110.0013476 +0   58.1714176 +0    15     8     1
  H     1.10586493 +0   89.9973130 +0    0.0034932 +0    14     8    12
  H     1.10586493 +0   89.9973130 +0  105.9332416 +0    14     8    12
  C     2.52596293 +0  179.9979105 +0 -179.9965068 +0    14     8    12
  C     1.53446497 +0   34.6039120 +0 -127.0399895 +0    20    14    18
  H     1.10586493 +0  109.9974308 +0 -121.8478487 +0    21    20    14
  H     1.10586493 +0  109.9974308 +0  121.8478487 +0    21    20    14
  H     1.10586493 +0   89.9973130 +0    0.0034932 +0    20    14    18
  H     1.10586493 +0   89.9973130 +0  105.9332416 +0    20    14    18
  C     2.52596293 +0  179.9979105 +0  -59.6718305 +1    20    14    18
  C     1.53446497 +0  145.3910085 +0 -127.0399895 +0    20    14    18
  H     1.10586493 +0  110.0013476 +0  -58.1714176 +0    27    20    14
  H     1.10586493 +0  110.0013476 +0   58.1714176 +0    27    20    14
  H     1.10586493 +0   89.9973130 +0    0.0034932 +0    26    20    24
  H     1.10586493 +0   89.9973130 +0  105.9332416 +0    26    20    24
  C     2.52596293 +0  179.9979105 +0  -37.5118880 +1    26    20    24
  C     1.53446497 +0   34.6039120 +0 -127.0399895 +0    32    26    30
  H     1.10586493 +0  109.9974308 +0 -121.8478487 +0    33    32    26
  H     1.10586493 +0  109.9974308 +0  121.8478487 +0    33    32    26
  H     1.10586493 +0   89.9973130 +0    0.0034932 +0    32    26    30
  H     1.10586493 +0   89.9973130 +0  105.9332416 +0    32    26    30
  C     2.52596293 +0  179.9979105 +0  -46.0146949 +1    32    26    30
  C     1.53446497 +0  145.3910085 +0 -127.0399895 +0    32    26    30
  H     1.10586493 +0  110.0013476 +0  -58.1714176 +0    39    32    26
  H     1.10586493 +0  110.0013476 +0   58.1714176 +0    39    32    26
  H     1.10586493 +0   89.9973130 +0    0.0034932 +0    38    32    36
  H     1.10586493 +0   89.9973130 +0  105.9332416 +0    38    32    36
  C     2.52596293 +0  179.9979105 +0  -36.5010212 +1    38    32    36
  C     1.53446497 +0   34.6039120 +0 -127.0399895 +0    44    38    42
  H     1.10586493 +0  109.9974308 +0 -121.8478487 +0    45    44    38
  H     1.10586493 +0  109.9974308 +0  121.8478487 +0    45    44    38
  H     1.10586493 +0   89.9973130 +0    0.0034932 +0    44    38    42
  H     1.10586493 +0   89.9973130 +0  105.9332416 +0    44    38    42
 Tv     0.00000000 +0    0.0000000 +0    0.0000000 +0     2     1     3
 
   3  1    9   15   21   27   33   39   45
   3  2   15   27   39
   4  1    5    6    7   10   11   12   13   16   17   18
   4  1   19   22   23   24   25   28   29   30   31   34
   4  1   35   36   37   40   41   42   43   46   47   48
   4  1   49
   4  2    5   10   11   22   23   34   35   46   47
   4 14    5
   6  2    7
   6  3    9   15   21   27   33   39   45
   6 14    7
   8  1   14   20   26   32   38   44
   9  2   21   33   45
  10  3   22   34   46
  10 14   11   23   35   47
  12  2   13   18   19   24   25   30   31   36   37   42
  12  2   43   48   49
  12  3   14   18   20   24   30   36   42   48
  13  3   19   25   31   37   43   49
  14  2   20   26   32   38   44
  16  2   17   28   29   40   41
  16  3   28   40
  16 14   17   29   41
 
